data;
set K:= K1 K2 K3 K4 K5 K6 K7 K8 K9 K10 K11 K12 K13 K14 K15 ;

set F:= F1 F2 F3 ;

set Q:= Q1 Q2 ;

param T:= 45;
param V: 
	K1  K2  K3  K4  K5  K6  K7  K8  K9  K10 K11 K12 K13 K14 K15 :=
Q1	1   1   1   1   1   1   1   1   1   0   0   0   0   0   0   
Q2	0   0   0   0   0   0   0   0   0   1   1   1   1   1   1   
; # if resorce k is of type q

param TF:= 
K1 6
K2 6
K3 6
K4 6
K5 6
K6 6
K7 6
K8 6
K9 6
K10 12
K11 12
K12 12
K13 12
K14 12
K15 12
; # number of continuous time slots resource can fly

param TR:= 
K1 2
K2 2
K3 2
K4 2
K5 2
K6 2
K7 2
K8 2
K9 2
K10 4
K11 4
K12 4
K13 4
K14 4
K15 4
; #  number of continuous time slots resource k needs to rest between flights

param P:= 
K1 36
K2 36
K3 36
K4 36
K5 36
K6 36
K7 36
K8 36
K9 36
K10 36
K11 36
K12 36
K13 36
K14 36
K15 36
; #  number of continuous time slots a pilot can be present including rest times for resource k 

param N:= 
K1 4
K2 4
K3 4
K4 4
K5 4
K6 4
K7 4
K8 4
K9 4
K10 2
K11 2
K12 1
K13 1
K14 2
K15 2
; # max number of flights resource k can fly in the total time period

param A: 
	K1  K2  K3  K4  K5  K6  K7  K8  K9  K10 K11 K12 K13 K14 K15 :=
1	1   1   1   1   1   1   1   1   1   1   1   0   0   1   1   
2	1   1   1   1   1   1   1   1   1   1   1   0   0   1   1   
3	1   1   1   1   1   1   1   1   1   1   1   0   0   1   1   
4	1   1   1   1   1   1   1   1   1   1   1   0   0   1   1   
5	1   1   1   1   1   1   1   1   1   1   1   0   0   1   1   
6	1   1   1   1   1   1   1   1   1   1   1   0   0   1   1   
7	1   1   1   1   1   1   1   1   1   1   1   0   0   1   1   
8	1   1   1   1   1   1   1   1   1   1   1   0   0   1   1   
9	1   1   1   1   1   1   1   1   1   1   1   0   0   1   1   
10	1   1   1   1   1   1   1   1   1   1   1   0   0   1   1   
11	1   1   1   1   1   1   1   1   1   1   1   0   0   1   1   
12	1   1   1   1   1   1   1   1   1   1   1   0   0   1   1   
13	1   1   1   1   1   1   1   1   1   1   1   0   0   1   1   
14	1   1   1   1   1   1   1   1   1   1   1   0   0   1   1   
15	1   1   1   1   1   1   1   1   1   1   1   0   0   1   1   
16	1   1   1   1   1   1   1   1   1   1   1   1   0   1   1   
17	1   1   1   1   1   1   1   1   1   1   1   1   0   1   1   
18	1   1   1   1   1   1   1   1   1   1   1   1   0   1   1   
19	1   1   1   1   1   1   1   1   1   1   1   1   1   1   1   
20	1   1   1   1   1   1   1   1   1   1   1   1   1   1   1   
21	1   1   1   1   1   1   1   1   1   1   1   1   1   1   1   
22	1   1   1   1   1   1   1   1   1   1   1   1   1   1   1   
23	1   1   1   1   1   1   1   1   1   1   1   1   1   1   1   
24	1   1   1   1   1   1   1   1   1   1   1   1   1   1   1   
25	1   1   1   1   1   1   1   1   1   1   1   1   1   1   1   
26	1   1   1   1   1   1   1   1   1   1   1   1   1   1   1   
27	1   1   1   1   1   1   1   1   1   1   1   1   1   1   1   
28	1   1   1   1   1   1   1   1   1   1   1   1   1   1   1   
29	1   1   1   1   1   1   1   1   1   1   1   1   1   1   1   
30	1   1   1   1   1   1   1   1   1   1   1   1   1   1   1   
31	1   1   1   1   1   1   1   1   1   1   1   1   1   1   1   
32	1   1   1   1   1   1   1   1   1   1   1   1   1   1   1   
33	1   1   1   1   1   1   1   1   1   1   1   1   1   1   1   
34	1   1   1   1   1   1   1   1   1   1   1   1   1   1   1   
35	1   1   1   1   1   1   1   1   1   1   1   1   1   1   1   
36	1   1   1   1   1   1   1   1   1   1   1   1   1   1   1   
37	1   1   1   1   1   1   1   1   1   1   1   1   1   1   1   
38	1   1   1   1   1   1   1   1   1   1   1   1   1   1   1   
39	1   1   1   1   1   1   1   1   1   1   1   1   1   1   1   
40	1   1   1   1   1   1   1   1   1   1   1   1   1   1   1   
41	1   1   1   1   1   1   1   1   1   1   1   1   1   1   1   
42	1   1   1   1   1   1   1   1   1   1   1   1   1   1   1   
43	1   1   1   1   1   1   1   1   1   1   1   1   1   1   1   
44	1   1   1   1   1   1   1   1   1   1   1   1   1   1   1   
45	1   1   1   1   1   1   1   1   1   1   1   1   1   1   1   
; # availability of resorce k in time slot t

param B: 
	F1  F2  F3  :=
Q1	0   0   0   
Q2	0   0   0   
; # if front f requires resources of type q

param U: 
	F1  F2  F3  :=
K1	0   0   0   
K2	0   0   0   
K3	0   0   0   
K4	0   0   0   
K5	0   0   0   
K6	0   0   0   
K7	0   0   0   
K8	0   0   0   
K9	0   0   0   
K10	1   1   1   
K11	2   2   2   
K12	2   2   2   
K13	1   1   1   
K14	0   0   0   
K15	2   2   2   
; # transit time of resource

param C:= 
K1 900
K2 900
K3 900
K4 900
K5 900
K6 1500
K7 1500
K8 4500
K9 4500
K10 5500
K11 5500
K12 5500
K13 5500
K14 5500
K15 5500
; #  water capacity of resource k

param S:= 
F1 9
F2 9
F3 9
; # max number of resources that can fly at front f in the same time slot

param D:= 

[*,*,F1 ]:  K1    K2    K3    K4    K5    K6    K7    K8    K9    K10   K11   K12   K13   K14   K15   :=
1           1.99  1.99  1.99  1.99  1.99  1.99  1.99  1.58  1.58  1.19  1.19  1.19  1.19  1.19  1.19  
2           1.99  1.99  1.99  1.99  1.99  1.99  1.99  1.58  1.58  1.19  1.19  1.19  1.19  1.19  1.19  
3           1.99  1.99  1.99  1.99  1.99  1.99  1.99  1.58  1.58  1.19  1.19  1.19  1.19  1.19  1.19  
4           1.99  1.99  1.99  1.99  1.99  1.99  1.99  1.58  1.58  1.19  1.19  1.19  1.19  1.19  1.19  
5           1.99  1.99  1.99  1.99  1.99  1.99  1.99  1.58  1.58  1.19  1.19  1.19  1.19  1.19  1.19  
6           1.99  1.99  1.99  1.99  1.99  1.99  1.99  1.58  1.58  1.19  1.19  1.19  1.19  1.19  1.19  
7           1.99  1.99  1.99  1.99  1.99  1.99  1.99  1.58  1.58  1.19  1.19  1.19  1.19  1.19  1.19  
8           1.99  1.99  1.99  1.99  1.99  1.99  1.99  1.58  1.58  1.19  1.19  1.19  1.19  1.19  1.19  
9           1.99  1.99  1.99  1.99  1.99  1.99  1.99  1.58  1.58  1.19  1.19  1.19  1.19  1.19  1.19  
10          1.99  1.99  1.99  1.99  1.99  1.99  1.99  1.58  1.58  1.19  1.19  1.19  1.19  1.19  1.19  
11          1.99  1.99  1.99  1.99  1.99  1.99  1.99  1.58  1.58  1.19  1.19  1.19  1.19  1.19  1.19  
12          1.99  1.99  1.99  1.99  1.99  1.99  1.99  1.58  1.58  1.19  1.19  1.19  1.19  1.19  1.19  
13          1.99  1.99  1.99  1.99  1.99  1.99  1.99  1.58  1.58  1.19  1.19  1.19  1.19  1.19  1.19  
14          1.99  1.99  1.99  1.99  1.99  1.99  1.99  1.58  1.58  1.19  1.19  1.19  1.19  1.19  1.19  
15          1.99  1.99  1.99  1.99  1.99  1.99  1.99  1.58  1.58  1.19  1.19  1.19  1.19  1.19  1.19  
16          1.99  1.99  1.99  1.99  1.99  1.99  1.99  1.58  1.58  1.19  1.19  1.19  1.19  1.19  1.19  
17          1.99  1.99  1.99  1.99  1.99  1.99  1.99  1.58  1.58  1.19  1.19  1.19  1.19  1.19  1.19  
18          1.99  1.99  1.99  1.99  1.99  1.99  1.99  1.58  1.58  1.19  1.19  1.19  1.19  1.19  1.19  
19          1.99  1.99  1.99  1.99  1.99  1.99  1.99  1.58  1.58  1.19  1.19  1.19  1.19  1.19  1.19  
20          1.99  1.99  1.99  1.99  1.99  1.99  1.99  1.58  1.58  1.19  1.19  1.19  1.19  1.19  1.19  
21          1.99  1.99  1.99  1.99  1.99  1.99  1.99  1.58  1.58  1.19  1.19  1.19  1.19  1.19  1.19  
22          1.99  1.99  1.99  1.99  1.99  1.99  1.99  1.58  1.58  1.19  1.19  1.19  1.19  1.19  1.19  
23          1.99  1.99  1.99  1.99  1.99  1.99  1.99  1.58  1.58  1.19  1.19  1.19  1.19  1.19  1.19  
24          1.99  1.99  1.99  1.99  1.99  1.99  1.99  1.58  1.58  1.19  1.19  1.19  1.19  1.19  1.19  
25          1.89  1.89  1.89  1.89  1.89  1.89  1.89  1.50  1.50  1.13  1.13  1.13  1.13  1.13  1.13  
26          1.89  1.89  1.89  1.89  1.89  1.89  1.89  1.50  1.50  1.13  1.13  1.13  1.13  1.13  1.13  
27          1.89  1.89  1.89  1.89  1.89  1.89  1.89  1.50  1.50  1.13  1.13  1.13  1.13  1.13  1.13  
28          1.89  1.89  1.89  1.89  1.89  1.89  1.89  1.50  1.50  1.13  1.13  1.13  1.13  1.13  1.13  
29          1.89  1.89  1.89  1.89  1.89  1.89  1.89  1.50  1.50  1.13  1.13  1.13  1.13  1.13  1.13  
30          1.89  1.89  1.89  1.89  1.89  1.89  1.89  1.50  1.50  1.13  1.13  1.13  1.13  1.13  1.13  
31          1.89  1.89  1.89  1.89  1.89  1.89  1.89  1.50  1.50  1.13  1.13  1.13  1.13  1.13  1.13  
32          1.89  1.89  1.89  1.89  1.89  1.89  1.89  1.50  1.50  1.13  1.13  1.13  1.13  1.13  1.13  
33          1.89  1.89  1.89  1.89  1.89  1.89  1.89  1.50  1.50  1.13  1.13  1.13  1.13  1.13  1.13  
34          1.99  1.99  1.99  1.99  1.99  1.99  1.99  1.58  1.58  1.19  1.19  1.19  1.19  1.19  1.19  
35          1.99  1.99  1.99  1.99  1.99  1.99  1.99  1.58  1.58  1.19  1.19  1.19  1.19  1.19  1.19  
36          1.99  1.99  1.99  1.99  1.99  1.99  1.99  1.58  1.58  1.19  1.19  1.19  1.19  1.19  1.19  
37          1.99  1.99  1.99  1.99  1.99  1.99  1.99  1.58  1.58  1.19  1.19  1.19  1.19  1.19  1.19  
38          1.99  1.99  1.99  1.99  1.99  1.99  1.99  1.58  1.58  1.19  1.19  1.19  1.19  1.19  1.19  
39          1.99  1.99  1.99  1.99  1.99  1.99  1.99  1.58  1.58  1.19  1.19  1.19  1.19  1.19  1.19  
40          1.99  1.99  1.99  1.99  1.99  1.99  1.99  1.58  1.58  1.19  1.19  1.19  1.19  1.19  1.19  
41          1.99  1.99  1.99  1.99  1.99  1.99  1.99  1.58  1.58  1.19  1.19  1.19  1.19  1.19  1.19  
42          1.99  1.99  1.99  1.99  1.99  1.99  1.99  1.58  1.58  1.19  1.19  1.19  1.19  1.19  1.19  
43          1.99  1.99  1.99  1.99  1.99  1.99  1.99  1.58  1.58  1.19  1.19  1.19  1.19  1.19  1.19  
44          1.99  1.99  1.99  1.99  1.99  1.99  1.99  1.58  1.58  1.19  1.19  1.19  1.19  1.19  1.19  
45          1.99  1.99  1.99  1.99  1.99  1.99  1.99  1.58  1.58  1.19  1.19  1.19  1.19  1.19  1.19  

[*,*,F2 ]:  K1    K2    K3    K4    K5    K6    K7    K8    K9    K10   K11   K12   K13   K14   K15   :=
1           1.59  1.59  1.59  1.59  1.59  1.59  1.59  1.26  1.26  0.95  0.95  0.95  0.95  0.95  0.95  
2           1.59  1.59  1.59  1.59  1.59  1.59  1.59  1.26  1.26  0.95  0.95  0.95  0.95  0.95  0.95  
3           1.59  1.59  1.59  1.59  1.59  1.59  1.59  1.26  1.26  0.95  0.95  0.95  0.95  0.95  0.95  
4           1.59  1.59  1.59  1.59  1.59  1.59  1.59  1.26  1.26  0.95  0.95  0.95  0.95  0.95  0.95  
5           1.59  1.59  1.59  1.59  1.59  1.59  1.59  1.26  1.26  0.95  0.95  0.95  0.95  0.95  0.95  
6           1.59  1.59  1.59  1.59  1.59  1.59  1.59  1.26  1.26  0.95  0.95  0.95  0.95  0.95  0.95  
7           1.59  1.59  1.59  1.59  1.59  1.59  1.59  1.26  1.26  0.95  0.95  0.95  0.95  0.95  0.95  
8           1.59  1.59  1.59  1.59  1.59  1.59  1.59  1.26  1.26  0.95  0.95  0.95  0.95  0.95  0.95  
9           1.59  1.59  1.59  1.59  1.59  1.59  1.59  1.26  1.26  0.95  0.95  0.95  0.95  0.95  0.95  
10          1.59  1.59  1.59  1.59  1.59  1.59  1.59  1.26  1.26  0.95  0.95  0.95  0.95  0.95  0.95  
11          1.59  1.59  1.59  1.59  1.59  1.59  1.59  1.26  1.26  0.95  0.95  0.95  0.95  0.95  0.95  
12          1.59  1.59  1.59  1.59  1.59  1.59  1.59  1.26  1.26  0.95  0.95  0.95  0.95  0.95  0.95  
13          1.59  1.59  1.59  1.59  1.59  1.59  1.59  1.26  1.26  0.95  0.95  0.95  0.95  0.95  0.95  
14          1.59  1.59  1.59  1.59  1.59  1.59  1.59  1.26  1.26  0.95  0.95  0.95  0.95  0.95  0.95  
15          1.59  1.59  1.59  1.59  1.59  1.59  1.59  1.26  1.26  0.95  0.95  0.95  0.95  0.95  0.95  
16          1.59  1.59  1.59  1.59  1.59  1.59  1.59  1.26  1.26  0.95  0.95  0.95  0.95  0.95  0.95  
17          1.59  1.59  1.59  1.59  1.59  1.59  1.59  1.26  1.26  0.95  0.95  0.95  0.95  0.95  0.95  
18          1.59  1.59  1.59  1.59  1.59  1.59  1.59  1.26  1.26  0.95  0.95  0.95  0.95  0.95  0.95  
19          1.59  1.59  1.59  1.59  1.59  1.59  1.59  1.26  1.26  0.95  0.95  0.95  0.95  0.95  0.95  
20          1.59  1.59  1.59  1.59  1.59  1.59  1.59  1.26  1.26  0.95  0.95  0.95  0.95  0.95  0.95  
21          1.59  1.59  1.59  1.59  1.59  1.59  1.59  1.26  1.26  0.95  0.95  0.95  0.95  0.95  0.95  
22          1.59  1.59  1.59  1.59  1.59  1.59  1.59  1.26  1.26  0.95  0.95  0.95  0.95  0.95  0.95  
23          1.59  1.59  1.59  1.59  1.59  1.59  1.59  1.26  1.26  0.95  0.95  0.95  0.95  0.95  0.95  
24          1.59  1.59  1.59  1.59  1.59  1.59  1.59  1.26  1.26  0.95  0.95  0.95  0.95  0.95  0.95  
25          1.51  1.51  1.51  1.51  1.51  1.51  1.51  1.20  1.20  0.90  0.90  0.90  0.90  0.90  0.90  
26          1.51  1.51  1.51  1.51  1.51  1.51  1.51  1.20  1.20  0.90  0.90  0.90  0.90  0.90  0.90  
27          1.51  1.51  1.51  1.51  1.51  1.51  1.51  1.20  1.20  0.90  0.90  0.90  0.90  0.90  0.90  
28          1.51  1.51  1.51  1.51  1.51  1.51  1.51  1.20  1.20  0.90  0.90  0.90  0.90  0.90  0.90  
29          1.51  1.51  1.51  1.51  1.51  1.51  1.51  1.20  1.20  0.90  0.90  0.90  0.90  0.90  0.90  
30          1.51  1.51  1.51  1.51  1.51  1.51  1.51  1.20  1.20  0.90  0.90  0.90  0.90  0.90  0.90  
31          1.51  1.51  1.51  1.51  1.51  1.51  1.51  1.20  1.20  0.90  0.90  0.90  0.90  0.90  0.90  
32          1.51  1.51  1.51  1.51  1.51  1.51  1.51  1.20  1.20  0.90  0.90  0.90  0.90  0.90  0.90  
33          1.51  1.51  1.51  1.51  1.51  1.51  1.51  1.20  1.20  0.90  0.90  0.90  0.90  0.90  0.90  
34          1.59  1.59  1.59  1.59  1.59  1.59  1.59  1.26  1.26  0.95  0.95  0.95  0.95  0.95  0.95  
35          1.59  1.59  1.59  1.59  1.59  1.59  1.59  1.26  1.26  0.95  0.95  0.95  0.95  0.95  0.95  
36          1.59  1.59  1.59  1.59  1.59  1.59  1.59  1.26  1.26  0.95  0.95  0.95  0.95  0.95  0.95  
37          1.59  1.59  1.59  1.59  1.59  1.59  1.59  1.26  1.26  0.95  0.95  0.95  0.95  0.95  0.95  
38          1.59  1.59  1.59  1.59  1.59  1.59  1.59  1.26  1.26  0.95  0.95  0.95  0.95  0.95  0.95  
39          1.59  1.59  1.59  1.59  1.59  1.59  1.59  1.26  1.26  0.95  0.95  0.95  0.95  0.95  0.95  
40          1.59  1.59  1.59  1.59  1.59  1.59  1.59  1.26  1.26  0.95  0.95  0.95  0.95  0.95  0.95  
41          1.59  1.59  1.59  1.59  1.59  1.59  1.59  1.26  1.26  0.95  0.95  0.95  0.95  0.95  0.95  
42          1.59  1.59  1.59  1.59  1.59  1.59  1.59  1.26  1.26  0.95  0.95  0.95  0.95  0.95  0.95  
43          1.59  1.59  1.59  1.59  1.59  1.59  1.59  1.26  1.26  0.95  0.95  0.95  0.95  0.95  0.95  
44          1.59  1.59  1.59  1.59  1.59  1.59  1.59  1.26  1.26  0.95  0.95  0.95  0.95  0.95  0.95  
45          1.59  1.59  1.59  1.59  1.59  1.59  1.59  1.26  1.26  0.95  0.95  0.95  0.95  0.95  0.95  

[*,*,F3 ]:  K1    K2    K3    K4    K5    K6    K7    K8    K9    K10   K11   K12   K13   K14   K15   :=
1           1.75  1.75  1.75  1.75  1.75  1.75  1.75  1.40  1.40  1.05  1.05  1.05  1.05  1.05  1.05  
2           1.75  1.75  1.75  1.75  1.75  1.75  1.75  1.40  1.40  1.05  1.05  1.05  1.05  1.05  1.05  
3           1.75  1.75  1.75  1.75  1.75  1.75  1.75  1.40  1.40  1.05  1.05  1.05  1.05  1.05  1.05  
4           1.75  1.75  1.75  1.75  1.75  1.75  1.75  1.40  1.40  1.05  1.05  1.05  1.05  1.05  1.05  
5           1.75  1.75  1.75  1.75  1.75  1.75  1.75  1.40  1.40  1.05  1.05  1.05  1.05  1.05  1.05  
6           1.75  1.75  1.75  1.75  1.75  1.75  1.75  1.40  1.40  1.05  1.05  1.05  1.05  1.05  1.05  
7           1.75  1.75  1.75  1.75  1.75  1.75  1.75  1.40  1.40  1.05  1.05  1.05  1.05  1.05  1.05  
8           1.75  1.75  1.75  1.75  1.75  1.75  1.75  1.40  1.40  1.05  1.05  1.05  1.05  1.05  1.05  
9           1.75  1.75  1.75  1.75  1.75  1.75  1.75  1.40  1.40  1.05  1.05  1.05  1.05  1.05  1.05  
10          1.75  1.75  1.75  1.75  1.75  1.75  1.75  1.40  1.40  1.05  1.05  1.05  1.05  1.05  1.05  
11          1.75  1.75  1.75  1.75  1.75  1.75  1.75  1.40  1.40  1.05  1.05  1.05  1.05  1.05  1.05  
12          1.75  1.75  1.75  1.75  1.75  1.75  1.75  1.40  1.40  1.05  1.05  1.05  1.05  1.05  1.05  
13          1.75  1.75  1.75  1.75  1.75  1.75  1.75  1.40  1.40  1.05  1.05  1.05  1.05  1.05  1.05  
14          1.75  1.75  1.75  1.75  1.75  1.75  1.75  1.40  1.40  1.05  1.05  1.05  1.05  1.05  1.05  
15          1.75  1.75  1.75  1.75  1.75  1.75  1.75  1.40  1.40  1.05  1.05  1.05  1.05  1.05  1.05  
16          1.75  1.75  1.75  1.75  1.75  1.75  1.75  1.40  1.40  1.05  1.05  1.05  1.05  1.05  1.05  
17          1.75  1.75  1.75  1.75  1.75  1.75  1.75  1.40  1.40  1.05  1.05  1.05  1.05  1.05  1.05  
18          1.75  1.75  1.75  1.75  1.75  1.75  1.75  1.40  1.40  1.05  1.05  1.05  1.05  1.05  1.05  
19          1.75  1.75  1.75  1.75  1.75  1.75  1.75  1.40  1.40  1.05  1.05  1.05  1.05  1.05  1.05  
20          1.75  1.75  1.75  1.75  1.75  1.75  1.75  1.40  1.40  1.05  1.05  1.05  1.05  1.05  1.05  
21          1.75  1.75  1.75  1.75  1.75  1.75  1.75  1.40  1.40  1.05  1.05  1.05  1.05  1.05  1.05  
22          1.75  1.75  1.75  1.75  1.75  1.75  1.75  1.40  1.40  1.05  1.05  1.05  1.05  1.05  1.05  
23          1.75  1.75  1.75  1.75  1.75  1.75  1.75  1.40  1.40  1.05  1.05  1.05  1.05  1.05  1.05  
24          1.75  1.75  1.75  1.75  1.75  1.75  1.75  1.40  1.40  1.05  1.05  1.05  1.05  1.05  1.05  
25          1.67  1.67  1.67  1.67  1.67  1.67  1.67  1.33  1.33  1.00  1.00  1.00  1.00  1.00  1.00  
26          1.67  1.67  1.67  1.67  1.67  1.67  1.67  1.33  1.33  1.00  1.00  1.00  1.00  1.00  1.00  
27          1.67  1.67  1.67  1.67  1.67  1.67  1.67  1.33  1.33  1.00  1.00  1.00  1.00  1.00  1.00  
28          1.67  1.67  1.67  1.67  1.67  1.67  1.67  1.33  1.33  1.00  1.00  1.00  1.00  1.00  1.00  
29          1.67  1.67  1.67  1.67  1.67  1.67  1.67  1.33  1.33  1.00  1.00  1.00  1.00  1.00  1.00  
30          1.67  1.67  1.67  1.67  1.67  1.67  1.67  1.33  1.33  1.00  1.00  1.00  1.00  1.00  1.00  
31          1.67  1.67  1.67  1.67  1.67  1.67  1.67  1.33  1.33  1.00  1.00  1.00  1.00  1.00  1.00  
32          1.67  1.67  1.67  1.67  1.67  1.67  1.67  1.33  1.33  1.00  1.00  1.00  1.00  1.00  1.00  
33          1.67  1.67  1.67  1.67  1.67  1.67  1.67  1.33  1.33  1.00  1.00  1.00  1.00  1.00  1.00  
34          1.75  1.75  1.75  1.75  1.75  1.75  1.75  1.40  1.40  1.05  1.05  1.05  1.05  1.05  1.05  
35          1.75  1.75  1.75  1.75  1.75  1.75  1.75  1.40  1.40  1.05  1.05  1.05  1.05  1.05  1.05  
36          1.75  1.75  1.75  1.75  1.75  1.75  1.75  1.40  1.40  1.05  1.05  1.05  1.05  1.05  1.05  
37          1.75  1.75  1.75  1.75  1.75  1.75  1.75  1.40  1.40  1.05  1.05  1.05  1.05  1.05  1.05  
38          1.75  1.75  1.75  1.75  1.75  1.75  1.75  1.40  1.40  1.05  1.05  1.05  1.05  1.05  1.05  
39          1.75  1.75  1.75  1.75  1.75  1.75  1.75  1.40  1.40  1.05  1.05  1.05  1.05  1.05  1.05  
40          1.75  1.75  1.75  1.75  1.75  1.75  1.75  1.40  1.40  1.05  1.05  1.05  1.05  1.05  1.05  
41          1.75  1.75  1.75  1.75  1.75  1.75  1.75  1.40  1.40  1.05  1.05  1.05  1.05  1.05  1.05  
42          1.75  1.75  1.75  1.75  1.75  1.75  1.75  1.40  1.40  1.05  1.05  1.05  1.05  1.05  1.05  
43          1.75  1.75  1.75  1.75  1.75  1.75  1.75  1.40  1.40  1.05  1.05  1.05  1.05  1.05  1.05  
44          1.75  1.75  1.75  1.75  1.75  1.75  1.75  1.40  1.40  1.05  1.05  1.05  1.05  1.05  1.05  
45          1.75  1.75  1.75  1.75  1.75  1.75  1.75  1.40  1.40  1.05  1.05  1.05  1.05  1.05  1.05  
; # downloads resource k can do at front f in time t if intermediate time slot

param E:= 

[*,*,F1 ]:  K1    K2    K3    K4    K5    K6    K7    K8    K9    K10   K11   K12   K13   K14   K15   :=
1           0.89  0.08  0.32  0.22  0.66  0.52  0.64  0.27  0.36  0.18  0.15  0.21  0.54  0.29  0.08  
2           0.89  0.08  0.32  0.22  0.66  0.52  0.64  0.27  0.36  0.18  0.15  0.21  0.54  0.29  0.08  
3           0.89  0.08  0.32  0.22  0.66  0.52  0.64  0.27  0.36  0.18  0.15  0.21  0.54  0.29  0.08  
4           0.89  0.08  0.32  0.22  0.66  0.52  0.64  0.27  0.36  0.18  0.15  0.21  0.54  0.29  0.08  
5           0.89  0.08  0.32  0.22  0.66  0.52  0.64  0.27  0.36  0.18  0.15  0.21  0.54  0.29  0.08  
6           0.89  0.08  0.32  0.22  0.66  0.52  0.64  0.27  0.36  0.18  0.15  0.21  0.54  0.29  0.08  
7           0.89  0.08  0.32  0.22  0.66  0.52  0.64  0.27  0.36  0.18  0.15  0.21  0.54  0.29  0.08  
8           0.89  0.08  0.32  0.22  0.66  0.52  0.64  0.27  0.36  0.18  0.15  0.21  0.54  0.29  0.08  
9           0.89  0.08  0.32  0.22  0.66  0.52  0.64  0.27  0.36  0.18  0.15  0.21  0.54  0.29  0.08  
10          0.89  0.08  0.32  0.22  0.66  0.52  0.64  0.27  0.36  0.18  0.15  0.21  0.54  0.29  0.08  
11          0.89  0.08  0.32  0.22  0.66  0.52  0.64  0.27  0.36  0.18  0.15  0.21  0.54  0.29  0.08  
12          0.89  0.08  0.32  0.22  0.66  0.52  0.64  0.27  0.36  0.18  0.15  0.21  0.54  0.29  0.08  
13          0.89  0.08  0.32  0.22  0.66  0.52  0.64  0.27  0.36  0.18  0.15  0.21  0.54  0.29  0.08  
14          0.89  0.08  0.32  0.22  0.66  0.52  0.64  0.27  0.36  0.18  0.15  0.21  0.54  0.29  0.08  
15          0.89  0.08  0.32  0.22  0.66  0.52  0.64  0.27  0.36  0.18  0.15  0.21  0.54  0.29  0.08  
16          0.89  0.08  0.32  0.22  0.66  0.52  0.64  0.27  0.36  0.18  0.15  0.21  0.54  0.29  0.08  
17          0.89  0.08  0.32  0.22  0.66  0.52  0.64  0.27  0.36  0.18  0.15  0.21  0.54  0.29  0.08  
18          0.89  0.08  0.32  0.22  0.66  0.52  0.64  0.27  0.36  0.18  0.15  0.21  0.54  0.29  0.08  
19          0.89  0.08  0.32  0.22  0.66  0.52  0.64  0.27  0.36  0.18  0.15  0.21  0.54  0.29  0.08  
20          0.89  0.08  0.32  0.22  0.66  0.52  0.64  0.27  0.36  0.18  0.15  0.21  0.54  0.29  0.08  
21          0.89  0.08  0.32  0.22  0.66  0.52  0.64  0.27  0.36  0.18  0.15  0.21  0.54  0.29  0.08  
22          0.89  0.08  0.32  0.22  0.66  0.52  0.64  0.27  0.36  0.18  0.15  0.21  0.54  0.29  0.08  
23          0.89  0.08  0.32  0.22  0.66  0.52  0.64  0.27  0.36  0.18  0.15  0.21  0.54  0.29  0.08  
24          0.89  0.08  0.32  0.22  0.66  0.52  0.64  0.27  0.36  0.18  0.15  0.21  0.54  0.29  0.08  
25          0.85  0.08  0.30  0.21  0.62  0.49  0.60  0.26  0.35  0.17  0.15  0.20  0.51  0.27  0.08  
26          0.85  0.08  0.30  0.21  0.62  0.49  0.60  0.26  0.35  0.17  0.15  0.20  0.51  0.27  0.08  
27          0.85  0.08  0.30  0.21  0.62  0.49  0.60  0.26  0.35  0.17  0.15  0.20  0.51  0.27  0.08  
28          0.85  0.08  0.30  0.21  0.62  0.49  0.60  0.26  0.35  0.17  0.15  0.20  0.51  0.27  0.08  
29          0.85  0.08  0.30  0.21  0.62  0.49  0.60  0.26  0.35  0.17  0.15  0.20  0.51  0.27  0.08  
30          0.85  0.08  0.30  0.21  0.62  0.49  0.60  0.26  0.35  0.17  0.15  0.20  0.51  0.27  0.08  
31          0.85  0.08  0.30  0.21  0.62  0.49  0.60  0.26  0.35  0.17  0.15  0.20  0.51  0.27  0.08  
32          0.85  0.08  0.30  0.21  0.62  0.49  0.60  0.26  0.35  0.17  0.15  0.20  0.51  0.27  0.08  
33          0.85  0.08  0.30  0.21  0.62  0.49  0.60  0.26  0.35  0.17  0.15  0.20  0.51  0.27  0.08  
34          0.89  0.08  0.32  0.22  0.66  0.52  0.64  0.27  0.36  0.18  0.15  0.21  0.54  0.29  0.08  
35          0.89  0.08  0.32  0.22  0.66  0.52  0.64  0.27  0.36  0.18  0.15  0.21  0.54  0.29  0.08  
36          0.89  0.08  0.32  0.22  0.66  0.52  0.64  0.27  0.36  0.18  0.15  0.21  0.54  0.29  0.08  
37          0.89  0.08  0.32  0.22  0.66  0.52  0.64  0.27  0.36  0.18  0.15  0.21  0.54  0.29  0.08  
38          0.89  0.08  0.32  0.22  0.66  0.52  0.64  0.27  0.36  0.18  0.15  0.21  0.54  0.29  0.08  
39          0.89  0.08  0.32  0.22  0.66  0.52  0.64  0.27  0.36  0.18  0.15  0.21  0.54  0.29  0.08  
40          0.89  0.08  0.32  0.22  0.66  0.52  0.64  0.27  0.36  0.18  0.15  0.21  0.54  0.29  0.08  
41          0.89  0.08  0.32  0.22  0.66  0.52  0.64  0.27  0.36  0.18  0.15  0.21  0.54  0.29  0.08  
42          0.89  0.08  0.32  0.22  0.66  0.52  0.64  0.27  0.36  0.18  0.15  0.21  0.54  0.29  0.08  
43          0.89  0.08  0.32  0.22  0.66  0.52  0.64  0.27  0.36  0.18  0.15  0.21  0.54  0.29  0.08  
44          0.89  0.08  0.32  0.22  0.66  0.52  0.64  0.27  0.36  0.18  0.15  0.21  0.54  0.29  0.08  
45          0.89  0.08  0.32  0.22  0.66  0.52  0.64  0.27  0.36  0.18  0.15  0.21  0.54  0.29  0.08  

[*,*,F2 ]:  K1    K2    K3    K4    K5    K6    K7    K8    K9    K10   K11   K12   K13   K14   K15   :=
1           0.76  0.06  0.32  0.21  0.56  0.44  0.48  0.19  0.33  0.16  0.18  0.16  0.42  0.25  0.11  
2           0.76  0.06  0.32  0.21  0.56  0.44  0.48  0.19  0.33  0.16  0.18  0.16  0.42  0.25  0.11  
3           0.76  0.06  0.32  0.21  0.56  0.44  0.48  0.19  0.33  0.16  0.18  0.16  0.42  0.25  0.11  
4           0.76  0.06  0.32  0.21  0.56  0.44  0.48  0.19  0.33  0.16  0.18  0.16  0.42  0.25  0.11  
5           0.76  0.06  0.32  0.21  0.56  0.44  0.48  0.19  0.33  0.16  0.18  0.16  0.42  0.25  0.11  
6           0.76  0.06  0.32  0.21  0.56  0.44  0.48  0.19  0.33  0.16  0.18  0.16  0.42  0.25  0.11  
7           0.76  0.06  0.32  0.21  0.56  0.44  0.48  0.19  0.33  0.16  0.18  0.16  0.42  0.25  0.11  
8           0.76  0.06  0.32  0.21  0.56  0.44  0.48  0.19  0.33  0.16  0.18  0.16  0.42  0.25  0.11  
9           0.76  0.06  0.32  0.21  0.56  0.44  0.48  0.19  0.33  0.16  0.18  0.16  0.42  0.25  0.11  
10          0.76  0.06  0.32  0.21  0.56  0.44  0.48  0.19  0.33  0.16  0.18  0.16  0.42  0.25  0.11  
11          0.76  0.06  0.32  0.21  0.56  0.44  0.48  0.19  0.33  0.16  0.18  0.16  0.42  0.25  0.11  
12          0.76  0.06  0.32  0.21  0.56  0.44  0.48  0.19  0.33  0.16  0.18  0.16  0.42  0.25  0.11  
13          0.76  0.06  0.32  0.21  0.56  0.44  0.48  0.19  0.33  0.16  0.18  0.16  0.42  0.25  0.11  
14          0.76  0.06  0.32  0.21  0.56  0.44  0.48  0.19  0.33  0.16  0.18  0.16  0.42  0.25  0.11  
15          0.76  0.06  0.32  0.21  0.56  0.44  0.48  0.19  0.33  0.16  0.18  0.16  0.42  0.25  0.11  
16          0.76  0.06  0.32  0.21  0.56  0.44  0.48  0.19  0.33  0.16  0.18  0.16  0.42  0.25  0.11  
17          0.76  0.06  0.32  0.21  0.56  0.44  0.48  0.19  0.33  0.16  0.18  0.16  0.42  0.25  0.11  
18          0.76  0.06  0.32  0.21  0.56  0.44  0.48  0.19  0.33  0.16  0.18  0.16  0.42  0.25  0.11  
19          0.76  0.06  0.32  0.21  0.56  0.44  0.48  0.19  0.33  0.16  0.18  0.16  0.42  0.25  0.11  
20          0.76  0.06  0.32  0.21  0.56  0.44  0.48  0.19  0.33  0.16  0.18  0.16  0.42  0.25  0.11  
21          0.76  0.06  0.32  0.21  0.56  0.44  0.48  0.19  0.33  0.16  0.18  0.16  0.42  0.25  0.11  
22          0.76  0.06  0.32  0.21  0.56  0.44  0.48  0.19  0.33  0.16  0.18  0.16  0.42  0.25  0.11  
23          0.76  0.06  0.32  0.21  0.56  0.44  0.48  0.19  0.33  0.16  0.18  0.16  0.42  0.25  0.11  
24          0.76  0.06  0.32  0.21  0.56  0.44  0.48  0.19  0.33  0.16  0.18  0.16  0.42  0.25  0.11  
25          0.72  0.06  0.30  0.20  0.53  0.42  0.45  0.18  0.31  0.15  0.17  0.15  0.40  0.23  0.11  
26          0.72  0.06  0.30  0.20  0.53  0.42  0.45  0.18  0.31  0.15  0.17  0.15  0.40  0.23  0.11  
27          0.72  0.06  0.30  0.20  0.53  0.42  0.45  0.18  0.31  0.15  0.17  0.15  0.40  0.23  0.11  
28          0.72  0.06  0.30  0.20  0.53  0.42  0.45  0.18  0.31  0.15  0.17  0.15  0.40  0.23  0.11  
29          0.72  0.06  0.30  0.20  0.53  0.42  0.45  0.18  0.31  0.15  0.17  0.15  0.40  0.23  0.11  
30          0.72  0.06  0.30  0.20  0.53  0.42  0.45  0.18  0.31  0.15  0.17  0.15  0.40  0.23  0.11  
31          0.72  0.06  0.30  0.20  0.53  0.42  0.45  0.18  0.31  0.15  0.17  0.15  0.40  0.23  0.11  
32          0.72  0.06  0.30  0.20  0.53  0.42  0.45  0.18  0.31  0.15  0.17  0.15  0.40  0.23  0.11  
33          0.72  0.06  0.30  0.20  0.53  0.42  0.45  0.18  0.31  0.15  0.17  0.15  0.40  0.23  0.11  
34          0.76  0.06  0.32  0.21  0.56  0.44  0.48  0.19  0.33  0.16  0.18  0.16  0.42  0.25  0.11  
35          0.76  0.06  0.32  0.21  0.56  0.44  0.48  0.19  0.33  0.16  0.18  0.16  0.42  0.25  0.11  
36          0.76  0.06  0.32  0.21  0.56  0.44  0.48  0.19  0.33  0.16  0.18  0.16  0.42  0.25  0.11  
37          0.76  0.06  0.32  0.21  0.56  0.44  0.48  0.19  0.33  0.16  0.18  0.16  0.42  0.25  0.11  
38          0.76  0.06  0.32  0.21  0.56  0.44  0.48  0.19  0.33  0.16  0.18  0.16  0.42  0.25  0.11  
39          0.76  0.06  0.32  0.21  0.56  0.44  0.48  0.19  0.33  0.16  0.18  0.16  0.42  0.25  0.11  
40          0.76  0.06  0.32  0.21  0.56  0.44  0.48  0.19  0.33  0.16  0.18  0.16  0.42  0.25  0.11  
41          0.76  0.06  0.32  0.21  0.56  0.44  0.48  0.19  0.33  0.16  0.18  0.16  0.42  0.25  0.11  
42          0.76  0.06  0.32  0.21  0.56  0.44  0.48  0.19  0.33  0.16  0.18  0.16  0.42  0.25  0.11  
43          0.76  0.06  0.32  0.21  0.56  0.44  0.48  0.19  0.33  0.16  0.18  0.16  0.42  0.25  0.11  
44          0.76  0.06  0.32  0.21  0.56  0.44  0.48  0.19  0.33  0.16  0.18  0.16  0.42  0.25  0.11  
45          0.76  0.06  0.32  0.21  0.56  0.44  0.48  0.19  0.33  0.16  0.18  0.16  0.42  0.25  0.11  

[*,*,F3 ]:  K1    K2    K3    K4    K5    K6    K7    K8    K9    K10   K11   K12   K13   K14   K15   :=
1           0.86  0.11  0.37  0.19  0.47  0.37  0.61  0.28  0.32  0.14  0.18  0.25  0.44  0.25  0.05  
2           0.86  0.11  0.37  0.19  0.47  0.37  0.61  0.28  0.32  0.14  0.18  0.25  0.44  0.25  0.05  
3           0.86  0.11  0.37  0.19  0.47  0.37  0.61  0.28  0.32  0.14  0.18  0.25  0.44  0.25  0.05  
4           0.86  0.11  0.37  0.19  0.47  0.37  0.61  0.28  0.32  0.14  0.18  0.25  0.44  0.25  0.05  
5           0.86  0.11  0.37  0.19  0.47  0.37  0.61  0.28  0.32  0.14  0.18  0.25  0.44  0.25  0.05  
6           0.86  0.11  0.37  0.19  0.47  0.37  0.61  0.28  0.32  0.14  0.18  0.25  0.44  0.25  0.05  
7           0.86  0.11  0.37  0.19  0.47  0.37  0.61  0.28  0.32  0.14  0.18  0.25  0.44  0.25  0.05  
8           0.86  0.11  0.37  0.19  0.47  0.37  0.61  0.28  0.32  0.14  0.18  0.25  0.44  0.25  0.05  
9           0.86  0.11  0.37  0.19  0.47  0.37  0.61  0.28  0.32  0.14  0.18  0.25  0.44  0.25  0.05  
10          0.86  0.11  0.37  0.19  0.47  0.37  0.61  0.28  0.32  0.14  0.18  0.25  0.44  0.25  0.05  
11          0.86  0.11  0.37  0.19  0.47  0.37  0.61  0.28  0.32  0.14  0.18  0.25  0.44  0.25  0.05  
12          0.86  0.11  0.37  0.19  0.47  0.37  0.61  0.28  0.32  0.14  0.18  0.25  0.44  0.25  0.05  
13          0.86  0.11  0.37  0.19  0.47  0.37  0.61  0.28  0.32  0.14  0.18  0.25  0.44  0.25  0.05  
14          0.86  0.11  0.37  0.19  0.47  0.37  0.61  0.28  0.32  0.14  0.18  0.25  0.44  0.25  0.05  
15          0.86  0.11  0.37  0.19  0.47  0.37  0.61  0.28  0.32  0.14  0.18  0.25  0.44  0.25  0.05  
16          0.86  0.11  0.37  0.19  0.47  0.37  0.61  0.28  0.32  0.14  0.18  0.25  0.44  0.25  0.05  
17          0.86  0.11  0.37  0.19  0.47  0.37  0.61  0.28  0.32  0.14  0.18  0.25  0.44  0.25  0.05  
18          0.86  0.11  0.37  0.19  0.47  0.37  0.61  0.28  0.32  0.14  0.18  0.25  0.44  0.25  0.05  
19          0.86  0.11  0.37  0.19  0.47  0.37  0.61  0.28  0.32  0.14  0.18  0.25  0.44  0.25  0.05  
20          0.86  0.11  0.37  0.19  0.47  0.37  0.61  0.28  0.32  0.14  0.18  0.25  0.44  0.25  0.05  
21          0.86  0.11  0.37  0.19  0.47  0.37  0.61  0.28  0.32  0.14  0.18  0.25  0.44  0.25  0.05  
22          0.86  0.11  0.37  0.19  0.47  0.37  0.61  0.28  0.32  0.14  0.18  0.25  0.44  0.25  0.05  
23          0.86  0.11  0.37  0.19  0.47  0.37  0.61  0.28  0.32  0.14  0.18  0.25  0.44  0.25  0.05  
24          0.86  0.11  0.37  0.19  0.47  0.37  0.61  0.28  0.32  0.14  0.18  0.25  0.44  0.25  0.05  
25          0.82  0.10  0.35  0.18  0.45  0.35  0.58  0.27  0.31  0.13  0.17  0.24  0.42  0.24  0.05  
26          0.82  0.10  0.35  0.18  0.45  0.35  0.58  0.27  0.31  0.13  0.17  0.24  0.42  0.24  0.05  
27          0.82  0.10  0.35  0.18  0.45  0.35  0.58  0.27  0.31  0.13  0.17  0.24  0.42  0.24  0.05  
28          0.82  0.10  0.35  0.18  0.45  0.35  0.58  0.27  0.31  0.13  0.17  0.24  0.42  0.24  0.05  
29          0.82  0.10  0.35  0.18  0.45  0.35  0.58  0.27  0.31  0.13  0.17  0.24  0.42  0.24  0.05  
30          0.82  0.10  0.35  0.18  0.45  0.35  0.58  0.27  0.31  0.13  0.17  0.24  0.42  0.24  0.05  
31          0.82  0.10  0.35  0.18  0.45  0.35  0.58  0.27  0.31  0.13  0.17  0.24  0.42  0.24  0.05  
32          0.82  0.10  0.35  0.18  0.45  0.35  0.58  0.27  0.31  0.13  0.17  0.24  0.42  0.24  0.05  
33          0.82  0.10  0.35  0.18  0.45  0.35  0.58  0.27  0.31  0.13  0.17  0.24  0.42  0.24  0.05  
34          0.86  0.11  0.37  0.19  0.47  0.37  0.61  0.28  0.32  0.14  0.18  0.25  0.44  0.25  0.05  
35          0.86  0.11  0.37  0.19  0.47  0.37  0.61  0.28  0.32  0.14  0.18  0.25  0.44  0.25  0.05  
36          0.86  0.11  0.37  0.19  0.47  0.37  0.61  0.28  0.32  0.14  0.18  0.25  0.44  0.25  0.05  
37          0.86  0.11  0.37  0.19  0.47  0.37  0.61  0.28  0.32  0.14  0.18  0.25  0.44  0.25  0.05  
38          0.86  0.11  0.37  0.19  0.47  0.37  0.61  0.28  0.32  0.14  0.18  0.25  0.44  0.25  0.05  
39          0.86  0.11  0.37  0.19  0.47  0.37  0.61  0.28  0.32  0.14  0.18  0.25  0.44  0.25  0.05  
40          0.86  0.11  0.37  0.19  0.47  0.37  0.61  0.28  0.32  0.14  0.18  0.25  0.44  0.25  0.05  
41          0.86  0.11  0.37  0.19  0.47  0.37  0.61  0.28  0.32  0.14  0.18  0.25  0.44  0.25  0.05  
42          0.86  0.11  0.37  0.19  0.47  0.37  0.61  0.28  0.32  0.14  0.18  0.25  0.44  0.25  0.05  
43          0.86  0.11  0.37  0.19  0.47  0.37  0.61  0.28  0.32  0.14  0.18  0.25  0.44  0.25  0.05  
44          0.86  0.11  0.37  0.19  0.47  0.37  0.61  0.28  0.32  0.14  0.18  0.25  0.44  0.25  0.05  
45          0.86  0.11  0.37  0.19  0.47  0.37  0.61  0.28  0.32  0.14  0.18  0.25  0.44  0.25  0.05  
; # downloads resource k can do at front f in time t if starting or ending flight

param W: 
	F1        F2        F3        :=
1	233.62    233.62    233.62    
2	934.47    934.47    934.47    
3	934.47    934.47    934.47    
4	934.47    934.47    934.47    
5	934.47    934.47    934.47    
6	934.47    934.47    934.47    
7	934.47    934.47    934.47    
8	934.47    934.47    934.47    
9	934.47    934.47    934.47    
10	934.47    934.47    934.47    
11	934.47    934.47    934.47    
12	934.47    934.47    934.47    
13	934.47    934.47    934.47    
14	934.47    934.47    934.47    
15	934.47    934.47    934.47    
16	934.47    934.47    934.47    
17	934.47    934.47    934.47    
18	934.47    934.47    934.47    
19	934.47    934.47    934.47    
20	934.47    934.47    934.47    
21	934.47    934.47    934.47    
22	934.47    934.47    934.47    
23	934.47    934.47    934.47    
24	934.47    934.47    934.47    
25	934.47    934.47    934.47    
26	934.47    934.47    934.47    
27	934.47    934.47    934.47    
28	934.47    934.47    934.47    
29	934.47    934.47    934.47    
30	934.47    934.47    934.47    
31	934.47    934.47    934.47    
32	934.47    934.47    934.47    
33	934.47    934.47    934.47    
34	934.47    934.47    934.47    
35	934.47    934.47    934.47    
36	934.47    934.47    934.47    
37	934.47    934.47    934.47    
38	934.47    934.47    934.47    
39	934.47    934.47    934.47    
40	934.47    934.47    934.47    
41	934.47    934.47    934.47    
42	934.47    934.47    934.47    
43	934.47    934.47    934.47    
44	934.47    934.47    934.47    
45	233.62    233.62    233.62    
; # water needed at front f in time slot t

param M := 100000000; 

param a1:= 10000000;

param a2:= 100;

param a3:= 0.0001;
